QPLIB_2967
QCQ
maximize
38 # number of variables
191 # number of constraints
36 # number of quadratic terms in objective
18 1 -1.0
20 1 1.0
19 2 -1.0
21 2 1.0
20 3 -1.0
22 3 1.0
21 4 -1.0
23 4 1.0
22 5 -1.0
24 5 1.0
23 6 -1.0
25 6 1.0
24 7 -1.0
26 7 1.0
25 8 -1.0
27 8 1.0
26 9 -1.0
28 9 1.0
27 10 -1.0
29 10 1.0
28 11 -1.0
30 11 1.0
29 12 -1.0
31 12 1.0
30 13 -1.0
32 13 1.0
31 14 -1.0
33 14 1.0
32 15 -1.0
34 15 1.0
33 16 -1.0
35 16 1.0
34 17 -1.0
36 17 1.0
37 19 1.0
38 35 -1.0
0.0 # default value for linear coefficients in objective
2 # number of non-default linear coefficients in objective
18 0.25
36 -0.25
0.0 # objective constant
1064 # number of quadratic terms in all constraints
2 37 37 2.0
2 37 37 2.0
3 19 2 2.0
3 19 2 2.0
4 21 2 2.0
4 21 2 2.0
5 20 3 2.0
5 20 3 2.0
6 22 3 2.0
6 22 3 2.0
7 21 4 2.0
7 21 4 2.0
8 23 4 2.0
8 23 4 2.0
9 22 5 2.0
9 22 5 2.0
10 24 5 2.0
10 24 5 2.0
11 23 6 2.0
11 23 6 2.0
12 25 6 2.0
12 25 6 2.0
13 24 7 2.0
13 24 7 2.0
14 26 7 2.0
14 26 7 2.0
15 25 8 2.0
15 25 8 2.0
16 27 8 2.0
16 27 8 2.0
17 26 9 2.0
17 26 9 2.0
18 28 9 2.0
18 28 9 2.0
19 27 10 2.0
19 27 10 2.0
20 29 10 2.0
20 29 10 2.0
21 28 11 2.0
21 28 11 -4.0
21 28 11 2.0
21 28 11 -4.0
21 28 11 2.0
21 28 11 2.0
22 30 11 2.0
22 30 11 -4.0
22 30 11 2.0
22 30 11 -4.0
22 30 11 2.0
22 30 11 2.0
23 29 12 2.0
23 29 12 -4.0
23 29 12 2.0
23 29 12 -4.0
23 29 12 2.0
23 29 12 2.0
24 31 12 2.0
24 31 12 -4.0
24 31 12 2.0
24 31 12 -4.0
24 31 12 2.0
24 31 12 2.0
25 30 13 2.0
25 30 13 -4.0
25 30 13 2.0
25 30 13 -4.0
25 30 13 2.0
25 30 13 2.0
26 32 13 2.0
26 32 13 -4.0
26 32 13 2.0
26 32 13 -4.0
26 32 13 2.0
26 32 13 2.0
27 31 14 2.0
27 31 14 -4.0
27 31 14 2.0
27 31 14 -4.0
27 31 14 2.0
27 31 14 2.0
28 33 14 2.0
28 33 14 -4.0
28 33 14 2.0
28 33 14 -4.0
28 33 14 2.0
28 33 14 2.0
29 32 15 2.0
29 32 15 -4.0
29 32 15 2.0
29 32 15 -4.0
29 32 15 2.0
29 32 15 2.0
30 34 15 2.0
30 34 15 -4.0
30 34 15 2.0
30 34 15 -4.0
30 34 15 2.0
30 34 15 2.0
31 33 16 2.0
31 33 16 -4.0
31 33 16 2.0
31 33 16 -4.0
31 33 16 2.0
31 33 16 2.0
32 35 16 2.0
32 35 16 -4.0
32 35 16 2.0
32 35 16 -4.0
32 35 16 2.0
32 35 16 2.0
33 34 17 2.0
33 34 17 -4.0
33 34 17 2.0
33 34 17 -4.0
33 34 17 2.0
33 34 17 2.0
34 36 17 2.0
34 36 17 -4.0
34 36 17 2.0
34 36 17 -4.0
34 36 17 2.0
34 36 17 2.0
35 37 19 2.0
35 37 19 -4.0
35 37 19 2.0
35 37 19 -4.0
35 37 19 2.0
35 37 19 2.0
36 38 35 2.0
36 38 35 -4.0
36 38 35 2.0
36 38 35 -4.0
36 38 35 2.0
36 38 35 2.0
37 161 1 2.0
37 161 1 -4.0
37 161 1 2.0
37 161 1 -4.0
37 161 1 2.0
37 161 1 2.0
38 1 1 2.0
38 1 1 -4.0
38 1 1 2.0
38 1 1 2.0
38 1 1 -4.0
38 1 1 2.0
39 1538 114 2.0
39 1538 114 -4.0
39 1538 114 2.0
39 1538 114 2.0
39 1538 114 -4.0
39 1538 114 2.0
40 1 1 2.0
40 1 1 -4.0
40 1 1 2.0
40 1 1 2.0
40 1 1 -4.0
40 1 1 2.0
41 -1919655431 -1943567775 2.0
41 -1919655431 -1943567775 -4.0
41 -1919655431 -1943567775 2.0
41 -1919655431 -1943567775 2.0
41 -1919655431 -1943567775 -4.0
41 -1919655431 -1943567775 2.0
42 32728 32728 2.0
42 32728 32728 -4.0
42 32728 32728 2.0
42 32728 32728 2.0
42 32728 32728 -4.0
42 32728 32728 2.0
43 1 -1919655431 2.0
43 1 -1919655431 -4.0
43 1 -1919655431 2.0
43 1 -1919655431 2.0
43 1 -1919655431 -4.0
43 1 -1919655431 2.0
44 32728 1 2.0
44 32728 1 -4.0
44 32728 1 2.0
44 32728 1 2.0
44 32728 1 -4.0
44 32728 1 2.0
45 26876513 1 2.0
45 26876513 1 -4.0
45 26876513 1 2.0
45 26876513 1 2.0
45 26876513 1 -4.0
45 26876513 1 2.0
46 1 1 2.0
46 1 1 -4.0
46 1 1 2.0
46 1 1 2.0
46 1 1 -4.0
46 1 1 2.0
47 26876513 1 2.0
47 26876513 1 -4.0
47 26876513 1 2.0
47 26876513 1 2.0
47 26876513 1 -4.0
47 26876513 1 2.0
48 1 1 2.0
48 1 1 -4.0
48 1 1 2.0
48 1 1 2.0
48 1 1 -4.0
48 1 1 2.0
49 26251841 1 2.0
49 26251841 1 -4.0
49 26251841 1 2.0
49 26251841 1 2.0
49 26251841 1 -4.0
49 26251841 1 2.0
50 1 1 2.0
50 1 1 -4.0
50 1 1 2.0
50 1 1 2.0
50 1 1 -4.0
50 1 1 2.0
51 26255393 1 2.0
51 26255393 1 -4.0
51 26255393 1 2.0
51 26255393 1 2.0
51 26255393 1 -4.0
51 26255393 1 2.0
52 1 1 2.0
52 1 1 -4.0
52 1 1 2.0
52 1 1 2.0
52 1 1 -4.0
52 1 1 2.0
53 1 1 2.0
53 1 1 -4.0
53 1 1 2.0
53 1 1 2.0
53 1 1 -4.0
53 1 1 2.0
54 1 1 2.0
54 1 1 -4.0
54 1 1 2.0
54 1 1 2.0
54 1 1 -4.0
54 1 1 2.0
55 1 1 2.0
55 1 1 -4.0
55 1 1 2.0
55 1 1 -4.0
55 1 1 2.0
55 1 1 2.0
56 1 1 2.0
56 1 1 -4.0
56 1 1 2.0
56 1 1 2.0
56 1 1 -4.0
56 1 1 2.0
57 1 1 2.0
57 1 1 -4.0
57 1 1 2.0
57 1 1 2.0
57 1 1 -4.0
57 1 1 2.0
58 1 1 2.0
58 1 1 -4.0
58 1 1 2.0
58 1 1 2.0
58 1 1 -4.0
58 1 1 2.0
59 1 1 2.0
59 1 1 -4.0
59 1 1 2.0
59 1 1 2.0
59 1 1 -4.0
59 1 1 2.0
60 10 1 2.0
60 10 1 -4.0
60 10 1 2.0
60 10 1 2.0
60 10 1 -4.0
60 10 1 2.0
61 1 1 2.0
61 1 1 -4.0
61 1 1 2.0
61 1 1 2.0
61 1 1 -4.0
61 1 1 2.0
62 1 1 2.0
62 1 1 -4.0
62 1 1 2.0
62 1 1 2.0
62 1 1 -4.0
62 1 1 2.0
63 1 1 2.0
63 1 1 -4.0
63 1 1 2.0
63 1 1 2.0
63 1 1 -4.0
63 1 1 2.0
64 1027 1 2.0
64 1027 1 -4.0
64 1027 1 2.0
64 1027 1 2.0
64 1027 1 -4.0
64 1027 1 2.0
65 26255873 1 2.0
65 26255873 1 -4.0
65 26255873 1 2.0
65 26255873 1 2.0
65 26255873 1 -4.0
65 26255873 1 2.0
66 1 1 2.0
66 1 1 -4.0
66 1 1 2.0
66 1 1 2.0
66 1 1 -4.0
66 1 1 2.0
67 34 1 2.0
67 34 1 -4.0
67 34 1 2.0
67 34 1 2.0
67 34 1 -4.0
67 34 1 2.0
68 1 1 2.0
68 1 1 -4.0
68 1 1 2.0
68 1 1 2.0
68 1 1 -4.0
68 1 1 2.0
69 1818576901 1 2.0
69 1818576901 1 -4.0
69 1818576901 1 2.0
69 1818576901 1 2.0
69 1818576901 1 -4.0
69 1818576901 1 2.0
70 32625 1 2.0
70 32625 1 -4.0
70 32625 1 2.0
70 32625 1 2.0
70 32625 1 -4.0
70 32625 1 2.0
71 1 -1919657095 2.0
71 1 -1919657095 -4.0
71 1 -1919657095 2.0
71 1 -1919657095 -4.0
71 1 -1919657095 2.0
71 1 -1919657095 2.0
72 32728 1 2.0
72 32728 1 -4.0
72 32728 1 2.0
72 32728 1 2.0
72 32728 1 -4.0
72 32728 1 2.0
73 33 1 2.0
73 33 1 -4.0
73 33 1 2.0
73 33 1 2.0
73 33 1 -4.0
73 33 1 2.0
74 1 1 2.0
74 1 1 -4.0
74 1 1 2.0
74 1 1 2.0
74 1 1 -4.0
74 1 1 2.0
75 50 1 2.0
75 50 1 -4.0
75 50 1 2.0
75 50 1 2.0
75 50 1 -4.0
75 50 1 2.0
76 1 1 2.0
76 1 1 -4.0
76 1 1 2.0
76 1 1 2.0
76 1 1 -4.0
76 1 1 2.0
77 1651076122 1 2.0
77 1651076122 1 -4.0
77 1651076122 1 2.0
77 1651076122 1 2.0
77 1651076122 1 -4.0
77 1651076122 1 2.0
78 1852403556 1 2.0
78 1852403556 1 -4.0
78 1852403556 1 2.0
78 1852403556 1 2.0
78 1852403556 1 -4.0
78 1852403556 1 2.0
79 1768711012 1 2.0
79 1768711012 1 -4.0
79 1768711012 1 2.0
79 1768711012 1 2.0
79 1768711012 1 -4.0
79 1768711012 1 2.0
80 775173731 1 2.0
80 775173731 1 -4.0
80 775173731 1 2.0
80 775173731 1 2.0
80 775173731 1 -4.0
80 775173731 1 2.0
81 1646292852 1 2.0
81 1646292852 1 -4.0
81 1646292852 1 2.0
81 1646292852 1 2.0
81 1646292852 1 -4.0
81 1646292852 1 2.0
82 824209008 1 2.0
82 824209008 1 -4.0
82 824209008 1 2.0
82 824209008 1 2.0
82 824209008 1 -4.0
82 824209008 1 2.0
83 12321 1 2.0
83 12321 1 -4.0
83 12321 1 2.0
83 12321 1 2.0
83 12321 1 -4.0
83 12321 1 2.0
84 1 1 2.0
84 1 1 -4.0
84 1 1 2.0
84 1 1 2.0
84 1 1 -4.0
84 1 1 2.0
85 1 1 2.0
85 1 1 -4.0
85 1 1 2.0
85 1 1 2.0
85 1 1 -4.0
85 1 1 2.0
86 1 1 2.0
86 1 1 -4.0
86 1 1 2.0
86 1 1 -4.0
86 1 1 2.0
86 1 1 2.0
87 50 1 2.0
87 50 1 -4.0
87 50 1 2.0
87 50 1 2.0
87 50 1 -4.0
87 50 1 2.0
88 1 1 2.0
88 1 1 -4.0
88 1 1 2.0
88 1 1 2.0
88 1 1 -4.0
88 1 1 2.0
89 1651076122 1 2.0
89 1651076122 1 -4.0
89 1651076122 1 2.0
89 1651076122 1 2.0
89 1651076122 1 -4.0
89 1651076122 1 2.0
90 1852403556 1 2.0
90 1852403556 1 -4.0
90 1852403556 1 2.0
90 1852403556 1 2.0
90 1852403556 1 -4.0
90 1852403556 1 2.0
91 1768711012 1 2.0
91 1768711012 1 -4.0
91 1768711012 1 2.0
91 1768711012 1 2.0
91 1768711012 1 -4.0
91 1768711012 1 2.0
92 775173731 1 2.0
92 775173731 1 -4.0
92 775173731 1 2.0
92 775173731 1 2.0
92 775173731 1 -4.0
92 775173731 1 2.0
93 1663070068 1 2.0
93 1663070068 1 -4.0
93 1663070068 1 2.0
93 1663070068 1 2.0
93 1663070068 1 -4.0
93 1663070068 1 2.0
94 824206179 1 2.0
94 824206179 1 -4.0
94 824206179 1 2.0
94 824206179 1 2.0
94 824206179 1 -4.0
94 824206179 1 2.0
95 12321 1 2.0
95 12321 1 -4.0
95 12321 1 2.0
95 12321 1 2.0
95 12321 1 -4.0
95 12321 1 2.0
96 1 1 2.0
96 1 1 -4.0
96 1 1 2.0
96 1 1 2.0
96 1 1 -4.0
96 1 1 2.0
97 1 1 2.0
97 1 1 -4.0
97 1 1 2.0
97 1 1 2.0
97 1 1 -4.0
97 1 1 2.0
98 1 1 2.0
98 1 1 -4.0
98 1 1 2.0
98 1 1 2.0
98 1 1 -4.0
98 1 1 2.0
99 50 1 2.0
99 50 1 -4.0
99 50 1 2.0
99 50 1 2.0
99 50 1 -4.0
99 50 1 2.0
100 1 1 2.0
100 1 1 -4.0
100 1 1 2.0
100 1 1 -4.0
100 1 1 2.0
100 1 1 2.0
101 1651076122 1 2.0
101 1651076122 1 -4.0
101 1651076122 1 2.0
101 1651076122 1 2.0
101 1651076122 1 -4.0
101 1651076122 1 2.0
102 1852403556 1 2.0
102 1852403556 1 -4.0
102 1852403556 1 2.0
102 1852403556 1 2.0
102 1852403556 1 -4.0
102 1852403556 1 2.0
103 1768711012 1 2.0
103 1768711012 1 -4.0
103 1768711012 1 2.0
103 1768711012 1 2.0
103 1768711012 1 -4.0
103 1768711012 1 2.0
104 775173731 1 2.0
104 775173731 1 -4.0
104 775173731 1 2.0
104 775173731 1 2.0
104 775173731 1 -4.0
104 775173731 1 2.0
105 1646292852 1 2.0
105 1646292852 1 -4.0
105 1646292852 1 2.0
105 1646292852 1 2.0
105 1646292852 1 -4.0
105 1646292852 1 2.0
106 824209008 1 2.0
106 824209008 1 -4.0
106 824209008 1 2.0
106 824209008 1 2.0
106 824209008 1 -4.0
106 824209008 1 2.0
107 12321 1 2.0
107 12321 1 -4.0
107 12321 1 2.0
107 12321 1 2.0
107 12321 1 -4.0
107 12321 1 2.0
108 1 1 2.0
108 1 1 -4.0
108 1 1 2.0
108 1 1 2.0
108 1 1 -4.0
108 1 1 2.0
109 26214401 1 2.0
109 26214401 1 -4.0
109 26214401 1 2.0
109 26214401 1 2.0
109 26214401 1 -4.0
109 26214401 1 2.0
110 1 1 2.0
110 1 1 -4.0
110 1 1 2.0
110 1 1 2.0
110 1 1 -4.0
110 1 1 2.0
111 50 1 2.0
111 50 1 -4.0
111 50 1 2.0
111 50 1 2.0
111 50 1 -4.0
111 50 1 2.0
112 1 1 2.0
112 1 1 -4.0
112 1 1 2.0
112 1 1 2.0
112 1 1 -4.0
112 1 1 2.0
113 1651076122 1 2.0
113 1651076122 1 -4.0
113 1651076122 1 2.0
113 1651076122 1 -4.0
113 1651076122 1 2.0
113 1651076122 1 2.0
114 1852403556 1 2.0
114 1852403556 1 -4.0
114 1852403556 1 2.0
114 1852403556 1 2.0
114 1852403556 1 -4.0
114 1852403556 1 2.0
115 1768711012 1 2.0
115 1768711012 1 -4.0
115 1768711012 1 2.0
115 1768711012 1 2.0
115 1768711012 1 -4.0
115 1768711012 1 2.0
116 775173731 1 2.0
116 775173731 1 -4.0
116 775173731 1 2.0
116 775173731 1 2.0
116 775173731 1 -4.0
116 775173731 1 2.0
117 1663070068 1 2.0
117 1663070068 1 -4.0
117 1663070068 1 2.0
117 1663070068 1 2.0
117 1663070068 1 -4.0
117 1663070068 1 2.0
118 824206179 1 2.0
118 824206179 1 -4.0
118 824206179 1 2.0
118 824206179 1 2.0
118 824206179 1 -4.0
118 824206179 1 2.0
119 12321 1 2.0
119 12321 1 -4.0
119 12321 1 2.0
119 12321 1 2.0
119 12321 1 -4.0
119 12321 1 2.0
120 1 1 2.0
120 1 1 -4.0
120 1 1 2.0
120 1 1 2.0
120 1 1 -4.0
120 1 1 2.0
121 193 1 2.0
121 193 1 -4.0
121 193 1 2.0
121 193 1 2.0
121 193 1 -4.0
121 193 1 2.0
122 1 1 2.0
122 1 1 -4.0
122 1 1 2.0
122 1 1 2.0
122 1 1 -4.0
122 1 1 2.0
123 50 1 2.0
123 50 1 -4.0
123 50 1 2.0
123 50 1 2.0
123 50 1 -4.0
123 50 1 2.0
124 1 1 2.0
124 1 1 -4.0
124 1 1 2.0
124 1 1 2.0
124 1 1 -4.0
124 1 1 2.0
125 1651076122 1 2.0
125 1651076122 1 -4.0
125 1651076122 1 2.0
125 1651076122 1 -4.0
125 1651076122 1 2.0
125 1651076122 1 2.0
126 1852403556 1 2.0
126 1852403556 1 -4.0
126 1852403556 1 2.0
126 1852403556 1 2.0
126 1852403556 1 -4.0
126 1852403556 1 2.0
127 1768711012 1 2.0
127 1768711012 1 -4.0
127 1768711012 1 2.0
127 1768711012 1 2.0
127 1768711012 1 -4.0
127 1768711012 1 2.0
128 775173731 1 2.0
128 775173731 1 -4.0
128 775173731 1 2.0
128 775173731 1 2.0
128 775173731 1 -4.0
128 775173731 1 2.0
129 1663070068 1 2.0
129 1663070068 1 -4.0
129 1663070068 1 2.0
129 1663070068 1 2.0
129 1663070068 1 -4.0
129 1663070068 1 2.0
130 824210800 1 2.0
130 824210800 1 -4.0
130 824210800 1 2.0
130 824210800 1 2.0
130 824210800 1 -4.0
130 824210800 1 2.0
131 1 -1919668191 2.0
131 1 -1919668191 -4.0
131 1 -1919668191 2.0
131 1 -1919668191 2.0
131 1 -1919668191 -4.0
131 1 -1919668191 2.0
132 32728 1 2.0
132 32728 1 -4.0
132 32728 1 2.0
132 32728 1 2.0
132 32728 1 -4.0
132 32728 1 2.0
133 1 1 2.0
133 1 1 -4.0
133 1 1 2.0
133 1 1 2.0
133 1 1 -4.0
133 1 1 2.0
134 1 1 2.0
134 1 1 -4.0
134 1 1 2.0
134 1 1 2.0
134 1 1 -4.0
134 1 1 2.0
135 50 1 2.0
135 50 1 -4.0
135 50 1 2.0
135 50 1 2.0
135 50 1 -4.0
135 50 1 2.0
136 1 1 2.0
136 1 1 -4.0
136 1 1 2.0
136 1 1 -4.0
136 1 1 2.0
136 1 1 2.0
137 1651076122 1 2.0
137 1651076122 1 -4.0
137 1651076122 1 2.0
137 1651076122 1 2.0
137 1651076122 1 -4.0
137 1651076122 1 2.0
138 1852403556 1 2.0
138 1852403556 1 -4.0
138 1852403556 1 2.0
138 1852403556 1 2.0
138 1852403556 1 -4.0
138 1852403556 1 2.0
139 1768711012 1 2.0
139 1768711012 1 -4.0
139 1768711012 1 2.0
139 1768711012 1 2.0
139 1768711012 1 -4.0
139 1768711012 1 2.0
140 775173731 1 2.0
140 775173731 1 -4.0
140 775173731 1 2.0
140 775173731 1 2.0
140 775173731 1 -4.0
140 775173731 1 2.0
141 1763733364 1 2.0
141 1763733364 1 -4.0
141 1763733364 1 2.0
141 1763733364 1 2.0
141 1763733364 1 -4.0
141 1763733364 1 2.0
142 824209265 1 2.0
142 824209265 1 -4.0
142 824209265 1 2.0
142 824209265 1 2.0
142 824209265 1 -4.0
142 824209265 1 2.0
143 12321 1 2.0
143 12321 1 -4.0
143 12321 1 2.0
143 12321 1 2.0
143 12321 1 -4.0
143 12321 1 2.0
144 1 1 2.0
144 1 1 -4.0
144 1 1 2.0
144 1 1 2.0
144 1 1 -4.0
144 1 1 2.0
145 1 1 2.0
145 1 1 -4.0
145 1 1 2.0
145 1 1 2.0
145 1 1 -4.0
145 1 1 2.0
146 1 1 2.0
146 1 1 -4.0
146 1 1 2.0
146 1 1 -4.0
146 1 1 2.0
146 1 1 2.0
147 50 1 2.0
147 50 1 -4.0
147 50 1 2.0
147 50 1 2.0
147 50 1 -4.0
147 50 1 2.0
148 1 1 2.0
148 1 1 -4.0
148 1 1 2.0
148 1 1 2.0
148 1 1 -4.0
148 1 1 2.0
149 1651076122 1 2.0
149 1651076122 1 -4.0
149 1651076122 1 2.0
149 1651076122 1 2.0
149 1651076122 1 -4.0
149 1651076122 1 2.0
150 1852403556 1 2.0
150 1852403556 1 -4.0
150 1852403556 1 2.0
150 1852403556 1 2.0
150 1852403556 1 -4.0
150 1852403556 1 2.0
151 1768711012 1 2.0
151 1768711012 1 -4.0
151 1768711012 1 2.0
151 1768711012 1 2.0
151 1768711012 1 -4.0
151 1768711012 1 2.0
152 775173731 1 2.0
152 775173731 1 -4.0
152 775173731 1 2.0
152 775173731 1 2.0
152 775173731 1 -4.0
152 775173731 1 2.0
153 1864396660 1 2.0
153 1864396660 1 -4.0
153 1864396660 1 2.0
153 1864396660 1 2.0
153 1864396660 1 -4.0
153 1864396660 1 2.0
154 824205172 1 2.0
154 824205172 1 -4.0
154 824205172 1 2.0
154 824205172 1 2.0
154 824205172 1 -4.0
154 824205172 1 2.0
155 12321 1 2.0
155 12321 1 -4.0
155 12321 1 2.0
155 12321 1 -4.0
155 12321 1 2.0
155 12321 1 2.0
156 1 1 2.0
156 1 1 -4.0
156 1 1 2.0
156 1 1 2.0
156 1 1 -4.0
156 1 1 2.0
157 1 1 2.0
157 1 1 -4.0
157 1 1 2.0
157 1 1 2.0
157 1 1 -4.0
157 1 1 2.0
158 1 1 2.0
158 1 1 -4.0
158 1 1 2.0
158 1 1 2.0
158 1 1 -4.0
158 1 1 2.0
159 50 1 2.0
159 50 1 -4.0
159 50 1 2.0
159 50 1 2.0
159 50 1 -4.0
159 50 1 2.0
160 1 1 2.0
160 1 1 -4.0
160 1 1 2.0
160 1 1 2.0
160 1 1 -4.0
160 1 1 2.0
161 1651076122 1 2.0
161 1651076122 1 -4.0
161 1651076122 1 2.0
161 1651076122 1 2.0
161 1651076122 1 -4.0
161 1651076122 1 2.0
162 1852403556 1 2.0
162 1852403556 1 -4.0
162 1852403556 1 2.0
162 1852403556 1 2.0
162 1852403556 1 -4.0
162 1852403556 1 2.0
163 1768711012 1 2.0
163 1768711012 1 -4.0
163 1768711012 1 2.0
163 1768711012 1 -4.0
163 1768711012 1 2.0
163 1768711012 1 2.0
164 775173731 1 2.0
164 775173731 1 -4.0
164 775173731 1 2.0
164 775173731 1 2.0
164 775173731 1 -4.0
164 775173731 1 2.0
165 1931505524 1 2.0
165 1931505524 1 -4.0
165 1931505524 1 2.0
165 1931505524 1 2.0
165 1931505524 1 -4.0
165 1931505524 1 2.0
166 824209508 1 2.0
166 824209508 1 -4.0
166 824209508 1 2.0
166 824209508 1 2.0
166 824209508 1 -4.0
166 824209508 1 2.0
167 1 -1919667935 2.0
167 1 -1919667935 -4.0
167 1 -1919667935 2.0
167 1 -1919667935 2.0
167 1 -1919667935 -4.0
167 1 -1919667935 2.0
168 32728 1 2.0
168 32728 1 -4.0
168 32728 1 2.0
168 32728 1 2.0
168 32728 1 -4.0
168 32728 1 2.0
169 385 1 2.0
169 385 1 -4.0
169 385 1 2.0
169 385 1 2.0
169 385 1 -4.0
169 385 1 2.0
170 1 1 2.0
170 1 1 -4.0
170 1 1 2.0
170 1 1 -4.0
170 1 1 2.0
170 1 1 2.0
171 50 1 2.0
171 50 1 -4.0
171 50 1 2.0
171 50 1 2.0
171 50 1 -4.0
171 50 1 2.0
172 1 1 2.0
172 1 1 -4.0
172 1 1 2.0
172 1 1 2.0
172 1 1 -4.0
172 1 1 2.0
173 1651076121 1 2.0
173 1651076121 1 -4.0
173 1651076121 1 2.0
173 1651076121 1 2.0
173 1651076121 1 -4.0
173 1651076121 1 2.0
174 1684959076 1 2.0
174 1684959076 1 -4.0
174 1684959076 1 2.0
174 1684959076 1 2.0
174 1684959076 1 -4.0
174 1684959076 1 2.0
175 1651076196 1 2.0
175 1651076196 1 -4.0
175 1651076196 1 2.0
175 1651076196 1 2.0
175 1651076196 1 -4.0
175 1651076196 1 2.0
176 1932407863 1 2.0
176 1932407863 1 -4.0
176 1932407863 1 2.0
176 1932407863 1 -4.0
176 1932407863 1 2.0
176 1932407863 1 2.0
177 1868767344 1 2.0
177 1868767344 1 -4.0
177 1868767344 1 2.0
177 1868767344 1 2.0
177 1868767344 1 -4.0
177 1868767344 1 2.0
178 540090479 1 2.0
178 540090479 1 -4.0
178 540090479 1 2.0
178 540090479 1 2.0
178 540090479 1 -4.0
178 540090479 1 2.0
179 50 1 2.0
179 50 1 -4.0
179 50 1 2.0
179 50 1 2.0
179 50 1 -4.0
179 50 1 2.0
180 1 1 2.0
180 1 1 -4.0
180 1 1 2.0
180 1 1 2.0
180 1 1 -4.0
180 1 1 2.0
181 26255857 1 2.0
181 26255857 1 -4.0
181 26255857 1 2.0
181 26255857 1 -4.0
181 26255857 1 2.0
181 26255857 1 2.0
182 1 1 2.0
182 1 1 -4.0
182 1 1 2.0
182 1 1 2.0
182 1 1 -4.0
182 1 1 2.0
183 50 1 2.0
183 50 1 -4.0
183 50 1 2.0
183 50 1 2.0
183 50 1 -4.0
183 50 1 2.0
184 1 1 2.0
184 1 1 -4.0
184 1 1 2.0
184 1 1 2.0
184 1 1 -4.0
184 1 1 2.0
185 1651076121 1 2.0
185 1651076121 1 -4.0
185 1651076121 1 2.0
185 1651076121 1 -4.0
185 1651076121 1 2.0
185 1651076121 1 2.0
186 1684959076 1 2.0
186 1684959076 1 -4.0
186 1684959076 1 2.0
186 1684959076 1 2.0
186 1684959076 1 -4.0
186 1684959076 1 2.0
187 1651076196 1 2.0
187 1651076196 1 -4.0
187 1651076196 1 2.0
187 1651076196 1 2.0
187 1651076196 1 -4.0
187 1651076196 1 2.0
188 1932407863 1 2.0
188 1932407863 1 -4.0
188 1932407863 1 2.0
188 1932407863 1 -4.0
188 1932407863 1 2.0
188 1932407863 1 2.0
189 1868767344 1 2.0
189 1868767344 1 -4.0
189 1868767344 1 2.0
189 1868767344 1 2.0
189 1868767344 1 -4.0
189 1868767344 1 2.0
190 540090479 1 2.0
190 540090479 1 -4.0
190 540090479 1 2.0
190 540090479 1 -4.0
190 540090479 1 2.0
190 540090479 1 2.0
191 1 -1919651278 2.0
191 1 -1919651278 -4.0
191 1 -1919651278 2.0
191 1 -1919651278 -4.0
191 1 -1919651278 2.0
191 1 -1919651278 2.0
21 # number of linear terms in all constraints
1 37 1.0
1 38 -1.0
2 37 -1.0
3 1 -1.0
4 2 -1.0
5 3 -1.0
6 4 -1.0
7 5 -1.0
8 6 -1.0
9 7 -1.0
10 8 -1.0
11 9 -1.0
12 10 -1.0
13 11 -1.0
14 12 -1.0
15 13 -1.0
16 14 -1.0
17 15 -1.0
18 16 -1.0
19 17 -1.0
20 38 -1.0
1.79769313486232E+308 # value for infinity
-1.79769313486232E+308 # default left-hand-side value
1 # number of non-default left-hand-sides
1 0.0
4.0 # default right-hand-side value
20 # number of non-default right-hand-sides
1 0.0
2 3.75
3 3.75
4 3.75
5 3.75
6 3.75
7 3.75
8 3.75
9 3.75
10 3.75
11 3.75
12 3.75
13 3.75
14 3.75
15 3.75
16 3.75
17 3.75
18 3.75
19 3.75
20 3.75
-1.79769313486232E+308 # default variable lower bound value
19 # number of non-default variable lower bounds
1 0.5
2 0.5
3 0.5
4 0.5
5 0.5
6 0.5
7 0.5
8 0.5
9 0.5
10 0.5
11 0.5
12 0.5
13 0.5
14 0.5
15 0.5
16 0.5
17 0.5
37 0.5
38 0.5
1.79769313486232E+308 # default variable upper bound value
19 # number of non-default variable upper bounds
1 2.5
2 2.5
3 2.5
4 2.5
5 2.5
6 2.5
7 2.5
8 2.5
9 2.5
10 2.5
11 2.5
12 2.5
13 2.5
14 2.5
15 2.5
16 2.5
17 2.5
37 2.5
38 2.5
0.0 # default variable primal value in starting point
19 # number of non-default variable primal values in starting point
1 0.5
2 0.5
3 0.5
4 0.5
5 0.5
6 0.5
7 0.5
8 0.5
9 0.5
10 0.5
11 0.5
12 0.5
13 0.5
14 0.5
15 0.5
16 0.5
17 0.5
37 0.5
38 0.5
0.0 # default constraint dual value in starting point
0 # number of non-default constraint dual values in starting point
0.0 # default variable bound dual value in starting point
0 # number of non-default variable bound dual values in starting point
0 # number of non-default variable names
0 # number of non-default constraint names
